CapLotSizing_PM/src/Instancias/TCLSHT/6i6p4m/NBA02.OUT
 CG ITER, OVMR, OVMRUB =           1   10994.3496094    7687.0000000
 CG ITER, OVMR, OVMRUB =           2    7687.0004883    7687.0000000
 CG ITER, OVMR, OVMRUB =           3    7687.0000000    7687.0000000
 CG ITER, OVMR, OVMRUB =           4    7665.2006836    7665.2006836
 CG ITER, OVMR, OVMRUB =           5    7190.7758789    7660.9404297
 CG ITER, OVMR, OVMRUB =           6    6888.4873047    7660.9404297
 CG ITER, OVMR, OVMRUB =           7    6959.5214844    7660.9404297
 CG ITER, OVMR, OVMRUB =           8    7036.4433594    7660.9404297
 CG ITER, OVMR, OVMRUB =           9    7078.2377930    7660.9404297
 CG ITER, OVMR, OVMRUB =          10    7175.8408203    7660.9404297
 CG ITER, OVMR, OVMRUB =          11    7203.7905273    7660.9404297
 CG ITER, OVMR, OVMRUB =          12    7199.3095703    7660.9404297
 CG ITER, OVMR, OVMRUB =          13    7197.2348633    7381.1123047
 CG ITER, OVMR, OVMRUB =          14    7190.4682617    7381.1123047
 CG ITER, OVMR, OVMRUB =          15    7190.5361328    7333.5273438
 CG ITER, OVMR, OVMRUB =          16    7190.6132812    7325.2548828
 CG ITER, OVMR, OVMRUB =          17    7191.1606445    7325.2548828
 CG ITER, OVMR, OVMRUB =          18    7191.1694336    7325.2548828
 CG ITER, OVMR, OVMRUB =          19    7191.5312500    7297.9121094
 CG ITER, OVMR, OVMRUB =          20    7191.8657227    7297.9121094
 CG ITER, OVMR, OVMRUB =          21    7192.5078125    7297.9121094
 CG ITER, OVMR, OVMRUB =          22    7192.2851562    7297.9121094
 CG ITER, OVMR, OVMRUB =          23    7192.2851562    7297.3120117
OVLB =    7192.2851562 OVLUB =    7297.3120117 TIME =       0.8800000
